Nodes = 10;
Dist = [|
    0, 12, 19, 31, 22, 17, 23, 12, 24, 34, |
    12, 0, 15, 37, 21, 28, 35, 22, 16, 28, |
    19, 15, 0, 50, 36, 35, 35, 21, 31, 43, |
    31, 37, 50, 0, 20, 21, 37, 38, 33, 31, |
    22, 21, 36, 20, 0, 25, 40, 33, 12, 14, |
    17, 28, 35, 21, 25, 0, 16, 18, 34, 40, |
    23, 35, 35, 37, 40, 16, 0, 14, 46, 54, |
    12, 22, 21, 38, 33, 18, 14, 0, 36, 46, |
    24, 16, 31, 33, 12, 34, 46, 36, 0, 12, |
    34, 28, 43, 31, 14, 40, 54, 46, 12, 0, |
|];
